(set-logic OBJ)

; ∀ x ∈ POS. Respect(x) = true
; ∀ x ∈ NEG. Respect(x) = false
(synth-fun Respect ((x OBJ)) Bool
    (
        (Start Bool (
            ; Or/And/Not
            (Or Start Start)
            (And Start Start)
            (Not Start)

            ; userdefined functions
			; Person
			(Male x)
			(AgeLess x StartAge)
			(AgeGreater x StartAge)
			(AgeEq x StartAge)
			(Orientation x StartOrientation)
			(Glasses x)
			(Hat x)
			(HoldObjectsInFront x)
			(Bag x StartBag)
			(TopStyle x StartTopStyle)
			(BottomStyle x StartBottomStyle)
			(ShortSleeve x)
			(LongSleeve x)
			(LongCoat x)
			(Trousers x)
			(Shorts x)
			(SkirtDress x)
			(Boots x)
        ))

        ; terminals
		;Person
		(StartOrientation String ("Front" "Back" "Side"))
		(StartBag String ("BackPack" "ShoulderBag" "HandBag" "NoBag"))
		(StartTopStyle String ("UpperStride" "UpperLogo" "UpperPlaid" "UpperSplice" "NoTopStyle"))
		(StartBottomStyle String ("BottomStripe" "BottomPattern" "NoBottomStyle"))
		(StartAge Int (21 22 23 24 25 29 32 34 37 45))
    )
)

; I/O
; +
(declare-var x1 OBJ)
; -
(declare-var x5 OBJ)
(declare-var x6 OBJ)
(declare-var x12 OBJ)
(declare-var x18 OBJ)

; facts
; userdefined args = {}
(constraint (= (Respect {"id": 1, "cls": "Person", "Male": True, "Age": 22, "Orientation": "Front", "Glasses": False, "Hat": True, "HoldObjectsInFront": True, "Bag": "NoBag", "TopStyle": "NoTopStyle", "BottomStyle": "NoBottomStyle", "ShortSleeve": True, "LongSleeve": False, "LongCoat": False, "Trousers": False, "Shorts": True, "SkirtDress": False, "Boots": True}) true))

(constraint (= (Respect {"id": 5, "cls": "Person", "Male": True, "Age": 37, "Orientation": "Back", "Glasses": False, "Hat": False, "HoldObjectsInFront": False, "Bag": "NoBag", "TopStyle": "NoTopStyle", "BottomStyle": "NoBottomStyle", "ShortSleeve": True, "LongSleeve": False, "LongCoat": False, "Trousers": False, "Shorts": False, "SkirtDress": False, "Boots": False}) false))
(constraint (= (Respect {"id": 6, "cls": "Person", "Male": True, "Age": 23, "Orientation": "Back", "Glasses": False, "Hat": False, "HoldObjectsInFront": False, "Bag": "NoBag", "TopStyle": "UpperLogo", "BottomStyle": "NoBottomStyle", "ShortSleeve": True, "LongSleeve": False, "LongCoat": False, "Trousers": False, "Shorts": False, "SkirtDress": False, "Boots": False}) false))
(constraint (= (Respect {"id": 12, "cls": "Person", "Male": True, "Age": 22, "Orientation": "Side", "Glasses": False, "Hat": True, "HoldObjectsInFront": False, "Bag": "NoBag", "TopStyle": "UpperLogo", "BottomStyle": "BottomStripe", "ShortSleeve": True, "LongSleeve": False, "LongCoat": False, "Trousers": False, "Shorts": True, "SkirtDress": False, "Boots": True}) false))
(constraint (= (Respect {"id": 18, "cls": "Person", "Male": True, "Age": 34, "Orientation": "Front", "Glasses": False, "Hat": False, "HoldObjectsInFront": True, "Bag": "NoBag", "TopStyle": "NoTopStyle", "BottomStyle": "NoBottomStyle", "ShortSleeve": True, "LongSleeve": False, "LongCoat": False, "Trousers": True, "Shorts": False, "SkirtDress": False, "Boots": True}) false))

(check-synth)
